Gurobi 12.0.1:   lim:time = 500
  mip:bestbound = 1
Set parameter LogToConsole to value 1
  tech:outlev = 1
Set parameter InfUnbdInfo to value 1
Gurobi Optimizer version 12.0.1 build v12.0.1rc0 (win64 - Windows 11.0 (26100.2))

CPU model: Intel(R) Core(TM) i7-10700 CPU @ 2.90GHz, instruction set [SSE2|AVX|AVX2]
Thread count: 8 physical cores, 16 logical processors, using up to 16 threads

Non-default parameters:
TimeLimit  500
InfUnbdInfo  1

Optimize a model with 202 rows, 200 columns and 1037 nonzeros
Model fingerprint: 0x94e1e1e1
Model has 3 quadratic objective terms
Model has 6 quadratic constraints
Variable types: 22 continuous, 178 integer (0 binary)
Coefficient statistics:
  Matrix range     [1e+00, 1e+05]
  QMatrix range    [1e+00, 1e+00]
  QLMatrix range   [1e+00, 1e+01]
  Objective range  [4e+01, 3e+02]
  QObjective range [2e+00, 2e+00]
  Bounds range     [1e+00, 1e+02]
  RHS range        [1e+00, 1e+05]
  QRHS range       [1e+02, 1e+02]
Presolve removed 17 rows and 16 columns
Presolve time: 0.01s
Presolved: 290 rows, 279 columns, 1529 nonzeros
Variable types: 47 continuous, 232 integer (214 binary)
Found heuristic solution: objective 1082.9500000

Root relaxation: objective 3.640870e+02, 35 iterations, 0.00 seconds (0.00 work units)

    Nodes    |    Current Node    |     Objective Bounds      |     Work
 Expl Unexpl |  Obj  Depth IntInf | Incumbent    BestBd   Gap | It/Node Time

     0     0  364.08705    0   15 1082.95000  364.08705  66.4%     -    0s
H    0     0                     955.8400000  364.08705  61.9%     -    0s
H    0     0                     941.9800000  364.08705  61.3%     -    0s
H    0     0                     723.5100000  364.08705  49.7%     -    0s
H    0     0                     689.8600000  400.87083  41.9%     -    0s
     0     0  415.48000    0    6  689.86000  415.48000  39.8%     -    0s
H    0     0                     598.6600000  415.48000  30.6%     -    0s
     0     0  415.49838    0    6  598.66000  415.49838  30.6%     -    0s
H    0     0                     593.4400000  415.65026  30.0%     -    0s
     0     0  415.65026    0    6  593.44000  415.65026  30.0%     -    0s
     0     0  415.65026    0    6  593.44000  415.65026  30.0%     -    0s
     0     0  415.65026    0    9  593.44000  415.65026  30.0%     -    0s
H    0     0                     592.1800000  415.65026  29.8%     -    0s
     0     0  415.65026    0   11  592.18000  415.65026  29.8%     -    0s
     0     0  415.65026    0    7  592.18000  415.65026  29.8%     -    0s
     0     0  415.65026    0    7  592.18000  415.65026  29.8%     -    0s
     0     0  443.20000    0    7  592.18000  443.20000  25.2%     -    0s
     0     0  443.20000    0    9  592.18000  443.20000  25.2%     -    0s
     0     0  443.20000    0    7  592.18000  443.20000  25.2%     -    0s
     0     0  443.20000    0    6  592.18000  443.20000  25.2%     -    0s
     0     0  443.20000    0    6  592.18000  443.20000  25.2%     -    0s
     0     0  443.20000    0    6  592.18000  443.20000  25.2%     -    0s
     0     2  443.20000    0    6  592.18000  443.20000  25.2%     -    0s

Cutting planes:
  Learned: 3
  Gomory: 1
  Implied bound: 2
  MIR: 6
  RLT: 6

Explored 32 nodes (342 simplex iterations) in 0.10 seconds (0.05 work units)
Thread count was 16 (of 16 available processors)

Solution count 8: 592.18 593.44 598.66 ... 1082.95

Optimal solution found (tolerance 1.00e-04)
Best objective 5.921800000000e+02, best bound 5.921800000000e+02, gap 0.0000%

AMPL MP initial flat model has 200 variables (0 integer, 178 binary);
Objectives: 1 quadratic; 
Constraints:  202 linear; 6 quadratic;

AMPL MP final model has 200 variables (0 integer, 178 binary);
Objectives: 1 quadratic; 
Constraints:  202 linear; 6 quadratic;


-----RESULTS INFO-----
running_time:  0.15600000000000003
TC.best_bound:  592.18
TC:  592.18
MIP Gap (%):  0
=== Vehicle Routes ===
Vehicle 1: 0 → 15
Vehicle 2: 0 → 2
Vehicle 2: 1 → 15
Vehicle 2: 2 → 9
Vehicle 2: 9 → 1

=== Full Vehicle Routes ===
Vehicle 1: 0 → 0 (0<100)
Vehicle 2: 0 → 2 → 9 → 1 → 0 (60<100)
Arc used by MRT line: y variables:
MRT used: 9 → 10
Customer assigment to PL: u variables:
3 10
4 9
5 9
6 10
Node is served by regular vehicle: g variables:
1
2
9
Customer assigment to Home delivery: gm variables:
1
2
Node total demands: ntd variables:
1 8 1
2 14 1
5 0 0
6 0 0
13 0 0
14 0 0
7 0 0
8 0 0
9 38 1
10 0 0
11 0 0
12 0 0
Customer's demand delivered to PL: l variables:
3
4
5
6
